Route #1: 43 16 48 1 36 10 32 17 26
Route #2: 54 46 5 37 50 52
Route #3: 28 14 25 63 11 42 57
Route #4: 34 47 4 60 55 65 27
Route #5: 19 31 18 64 61 21 67 7
Route #6: 44 15 3 51 6 30 9 49 33 2 53
Route #7: 23 12 22 24
Route #8: 58 66 13 35 45 20 41 59 38 40 29
Route #9: 68 8 39 56 62
Cost 1164
Time 0.122641
